 H  C  O                                
   1.00000000000000     
     6.0000000000000000    0.0000000000000000    0.0000000000000000
     0.0000000000000000    6.0000000000000000    0.0000000000000000
     0.0000000000000000    0.0000000000000000    6.0000000000000000
   H    C    O 
     4     1     1
Direct
  0.3339234812656873  0.6599138330652002  0.5000000000000000
  0.6652923860100477  0.3217203195954184  0.5000000000000000
  0.5912623588489841  0.6778549792614967  0.6501190936131239
  0.5912623588489841  0.6778549792614967  0.3498809063868761
  0.5096062670223604  0.6088220980023101  0.5000000000000000
  0.5101448146706054  0.3691942908140747  0.5000000000000000
 
  0.00000000E+00  0.00000000E+00  0.00000000E+00
  0.00000000E+00  0.00000000E+00  0.00000000E+00
  0.00000000E+00  0.00000000E+00  0.00000000E+00
  0.00000000E+00  0.00000000E+00  0.00000000E+00
  0.00000000E+00  0.00000000E+00  0.00000000E+00
  0.00000000E+00  0.00000000E+00  0.00000000E+00
