 H  C  O 
 1.0000000000000000
     6.0000000000000000    0.0000000000000000    0.0000000000000000
     0.0000000000000000    6.0000000000000000    0.0000000000000000
     0.0000000000000000    0.0000000000000000    6.0000000000000000
   4   1   1
Cartesian
  2.0142354999999998  3.9538259999999998  3.0000000000000000
  3.9857645000000002  1.9355830000000001  3.0000000000000000
  3.5443755000000001  4.0644169999999997  3.8917720000000000
  3.5443755000000001  4.0644169999999997  2.1082280000000000
  3.0600995000000002  3.6484299999999998  3.0000000000000000
  3.0600995000000002  2.2254899999999997  3.0000000000000000
