 O                                      
   1.00000000000000     
     8.0000000000000000    0.0000000000000000    0.0000000000000000
     0.0000000000000000    8.0000000000000000    0.0000000000000000
     0.0000000000000000    0.0000000000000000    8.0000000000000000
   O 
     2
Direct
  0.0000000000000000  0.0000000000000000  0.0764569083308700
  0.0000000000000000  0.0000000000000000  0.9235430916691301
 
  0.00000000E+00  0.00000000E+00  0.00000000E+00
  0.00000000E+00  0.00000000E+00  0.00000000E+00
