INCAR created by Atomic Simulation Environment
 ENCUT = 250.000000
 PREC = Normal
 ISMEAR = 0
 NSW = 10
 IBRION = 2
 ISPIN = 2
 MAGMOM = 2*1.0000 
