 O 
 1.0000000000000000
     8.0000000000000000    0.0000000000000000    0.0000000000000000
     0.0000000000000000    8.0000000000000000    0.0000000000000000
     0.0000000000000000    0.0000000000000000    8.0000000000000000
   2
Cartesian
  0.0000000000000000  0.0000000000000000  0.6229780000000000
  0.0000000000000000  0.0000000000000000 -0.6229780000000000
