 H  C                                   
   1.00000000000000     
     6.0000000000000000    0.0000000000000000    0.0000000000000000
     0.0000000000000000    6.0000000000000000    0.0000000000000000
     0.0000000000000000    0.0000000000000000    6.0000000000000000
   H    C 
     6     6
Direct
  0.5000000000000000  0.8984944202100866  0.5000000000000000
  0.8537530320420813  0.7124335876479844  0.5000000000000000
  0.8537530320420813  0.2875664123520156  0.5000000000000000
  0.5000000000000000  0.1015055797899134  0.5000000000000000
  0.1462469679579186  0.2875664123520156  0.5000000000000000
  0.1462469679579186  0.7124335876479844  0.5000000000000000
  0.5000000000000000  0.7215948872593618  0.5000000000000000
  0.7027996821546593  0.6157813185845067  0.5000000000000000
  0.7027996821546593  0.3842186814154935  0.5000000000000000
  0.5000000000000000  0.2784051127406381  0.5000000000000000
  0.2972003178453408  0.3842186814154935  0.5000000000000000
  0.2972003178453408  0.6157813185845067  0.5000000000000000
 
  0.00000000E+00  0.00000000E+00  0.00000000E+00
  0.00000000E+00  0.00000000E+00  0.00000000E+00
  0.00000000E+00  0.00000000E+00  0.00000000E+00
  0.00000000E+00  0.00000000E+00  0.00000000E+00
  0.00000000E+00  0.00000000E+00  0.00000000E+00
  0.00000000E+00  0.00000000E+00  0.00000000E+00
  0.00000000E+00  0.00000000E+00  0.00000000E+00
  0.00000000E+00  0.00000000E+00  0.00000000E+00
  0.00000000E+00  0.00000000E+00  0.00000000E+00
  0.00000000E+00  0.00000000E+00  0.00000000E+00
  0.00000000E+00  0.00000000E+00  0.00000000E+00
  0.00000000E+00  0.00000000E+00  0.00000000E+00
