 H  C 
 1.0000000000000000
     6.0000000000000000    0.0000000000000000    0.0000000000000000
     0.0000000000000000    6.0000000000000000    0.0000000000000000
     0.0000000000000000    0.0000000000000000    6.0000000000000000
   6   6
Cartesian
  3.0000000000000000  5.4823599999999999  3.0000000000000000
  5.1497869999999999  4.2411799999999999  3.0000000000000000
  5.1497869999999999  1.7588200000000001  3.0000000000000000
  3.0000000000000000  0.5176400000000001  3.0000000000000000
  0.8502130000000001  1.7588200000000001  3.0000000000000000
  0.8502130000000001  4.2411799999999999  3.0000000000000000
  3.0000000000000000  4.3952480000000005  3.0000000000000000
  4.2083200000000005  3.6976240000000002  3.0000000000000000
  4.2083200000000005  2.3023759999999998  3.0000000000000000
  3.0000000000000000  1.6047520000000000  3.0000000000000000
  1.7916799999999999  2.3023759999999998  3.0000000000000000
  1.7916799999999999  3.6976240000000002  3.0000000000000000
